p cnf 23 9
e 1 2 3 0
a 4 5 0
e 6 0
a 7 8 0
e 9 0
a 10 0
e 11 12 0
a 13 14 0
e 15 0
a 16 0
e 17 0
a 18 0
e 19 20 0
a 21 22 0
e 23 0
-6 19 -5 0
14 15 22 -19 0
14 -2 5 10 18 0
14 -21 22 -8 0
20 -3 5 4 0
-6 20 -8 22 0
4 15 9 -18 12 0
-12 23 5 0
7 -21 -4 0
